

1

1

1

1

1

1

1

1

1

1

1

1

3

1

1

17

1

1

1

1

1

1

1

1

1

1

1

1

1

1

1

1

1

1

1

1

1

1

1

1

1

1

1

1

1

1

1

1

1

1

1

1

1

1

1

1

1

1

1

1

1

1

1

1

3

1

1

1

1

1

1

1

1

1

1

1

1

1

1

1

1

1

1

1

1

1

1

1

1

1

1

1

1

1

1

1

1

1

1

1

1

1

1

1

1

1

1

1

1

1

1

1

3

1

1

6

1

1

1

4

2

1

1

1

1

1

1

1

1

1

1

1

1

1

1

1

1

1

1

1

1

1

1

1

1

1

1

1

1

1

1

1

1

1

1

1

1

1

1

1

1

1

1

1

1

1

1

1

1

1

1

1

1

1

1

1

1

1

1

1

14

1

1

1

1

1

1

1

1

1

1

1

1

1

1

1

1

1

1

1

1

1

1

1

1

1

1

1

1

1

1

1

1

13

1

1

1

1

1

1

4

1

1

1

1

1

1

1

1

1

1

1

1

1

1

1

1

1

1

1

1

1

1

1

1

1

1

1

1

13

1

1

1

1

1

1

1

1

5

1

1

1

1

1

1

1

1

1

1

1

1

1

1

1

1

1

1

1

1

1

1

2

1

1

2

1

3

1

1

1

1

1

1

2

1

1

1

1

1

1

3

1

1

1

1

1

1

1

1

1

1

1

1

1

1

1

1

1

1

1

1

1

1

3

5

2

1

1

1

1

1

1

1

8

1

1

1

3

1

1

1

1

5

1

1

1

1

1

1

1

1

1

1

1

1

1

1

1

1

1

1

3

1

5

3

1

1

1

1

1

3

1

1

1

1

1

1

1

1

9

2

1

1

1

1

1

1

1

1

1

1

1

1

1

1

1

1

1

1

1

3

1

6

1

1

1

1

1

1

1

1

1

1

1

1

1

1

1

1

1

1

1

1

1

1

10

1

1

1

1

4

1

1

1

1

1

1

1

1

1

9

2

1

1

1

1

1

1

1

1

1

1

1

1

1

1

2

1

1

1

1

1

1

1

1

1

1

1

4

1

1

1

1

1

1

1

1

1

1

1

4

1

1

1

1

1

1

1

1

1

1

1

1

1

1

2

3

1

1

1

1

1

1

5

1

1

1

1

1

1

1

1

1

1

1

1

1

1

1

1

1

1

1

1

1

1

1

3

1

1

1

1

1

1

1

4

1

1

1

1

1

1

1

1

1

1

1

5

1

1

1

1

1

1

2

1

1

1

3

1

1

7

2

1

1

3

1

6

13

1

1

1

1

1

1

1

1

1

1

4

1

1

1

1

4

5

1

1

1

1

1

1

1

1

1

1

1

1

1

1

4

1

1

1

1

1

1

3

1

1

1

1

6

1

1

1

1

1

1

1

1

1

1

1

1

1

1

1

1

1

1

1

1

1

1

1

4

1

1

1

1

3

4

1

17

1

1

3

1

1

1

1

1

3

1

1

1

1

1

1

1

1

1

1

1

1

1

1

1

1

1

1

1

3

13

1

1

1

1

1

6

1

1

6

5

1

1

10

1

1

1

1

1

1

1

4

1

1

9

1

1

1

1

1

3

1

1

1

1

1

1

1

4

1

1

1

1

1

1

1

4

1

1

12

8

2

1

10

8

1

1

1

1

1

1

1

1

1

1

1

1

1

1

1

1

1

1

12

1

1

1

1

1

1

1

1

6

1

1

1

17

12

1

7

1

1

1

1

8

1

1

1

4

1

1

2

4

1

1

1

1

1

1

1

1

1

1

1

1

1

9

1

1

1

1

1

14

14

1

1

7

10

3

3

1

1

1

2

4

1

1

1

1

1

2

1

1

1

8

10

1

1

1

3

1

2

7

1

1

1

2

7

1

6

4

1

1

1

5

3

10

13

24

1

12

1

5

4

7

1

1

1

1

1

1

3

1

1

6

1

1

6

1

1

1

1

5

1

1

1

1

1

1

1

1

1

2

9

1

1

3

26

29

1

6

1

8

5

14

5

31

1

1

1

1

16

1

4

1

1

1

3

1

1

5

1

3

1

1

1

1

1

2

5

1

1

1

1

1

5

2

6

1

2

1

5

1

8

10

1

1

1

1

1

1

1

1

1

4

1

4

1

3

45

1

1

1

1

1

1

1

1

1

1

1

1

1

1

1

1

17

1

1

1

1

1

1

11

6

8

11

4

6

1

1

1

1

1

1

1

1

5

1

1

1

1

1

1

1

1

2

8

1

1

1

9

1

1

1

2

1

1

1

5

1

1

1

1

5

1

5

1

5

14

1

1

1

1

3

3

1

1

1

1

1

1

1

1

1

1

1

1

3

1

1

5

1

1

5

11

1

1

1

1

1

1

1

1

1

14

2

1

1

1

1

1

1

1

1

1

1

1

1

1

4

1

2

4

2

6

1

1

1

1

28

1

3

10

1

1

1

3

1

1

1

1

1

2

1

1

1

5

1

1

1

1

1

1

1

1

1

1

1

1

1

1

1

1

1

1

1

2

1

1

1

1

4

4

1

1

1

1

1

1

7

1

1

1

1

3

1

1

1

1

1

4

1

1

1

1

1

1

1

1

1

1

1

1

1

1

1

1

1

1

1

3

1

1

1

1

1

1

1

1

1

2

1

1

1

1

1

1

1

1

1

3

1

1

1

1

1

14

1

1

1

1

1

1

1

1

5

1

1

1

1

1

1

1

6

1

1

1

1

1

1

1

7

1

1

1

1

1

1

1

1

1

2

1

1

1

1

1

1

1

1

1

1

1

1

1

1

1

1

1

1

1

5

1

1

1

10

6

1

4

1

5

1

1

9

1

1

1

1

1

1

1

1

1

1

1

1

1

1

1

1

1

1

1

1

1

1

1

1

1

1

1

1

1

1

4

3

1

1

1

1

1

1

1

1

1

5

1

1

1

1

1

1

1

1

1

1

1

1

1

1

1

1

1

1

1

1

1

1

1

1

1

1

1

2

4

1

1

1

1

1

1

1

1

2

1

1

1

1

1

1

1

1

1

1

1

11

11

1

1

1

1

4

1

1

1

1

1

9

1

1

1

1

1

1

1

1

1

1

1

1

1

1

1

1

1

3

1

1

3

12

1

1

1

1

1

1

20

1

1

1

4

1

1

2

1

1

1

4

1

1

1

1

1

1

1

1

1

1

1

1

1

1

1

1

2

1

2

1

2

1

1

1

1

1

1

6

3

1

1

3

1

1

3

6

1

2

1

1

1

1

1

1

1

1

1

1

1

1

1

1

1

1

1

7

1

1

1

1

1

1

5

1

1

1

1

8

1

1

1

6

1

1

3

1

7

1

1

1

4

1

1

1

1

1

1

1

1

22

1

1

1

1

1

1

1

1

1

6

1

1

12

1

1

1

1

1

1

1

4

1

1

2

1

1

1

1

1

1

4

1

1

1

2

1

1

1

1

1

1

1

1

1

1

1

1

1

1

1

1

1

1

1

1

1

1

1

1

1

1

1

1

1

1

1

1

4

1

1

1

1

1

1

1

1

1

1

1

1

1

1

1

1

1

1

4

1

1

1

1

1

1

1

1

1

1

1

1

4

1

1

1

6

1

1

1

1

1

1

1

11

9

1

1

1

1

